datasets/2-dimensional/CL_07_25_03.vbp
2
150 150 
25
77 84 30
24 29 72
30 26 4
32 30 88
74 70 54
67 68 64
30 21 90
87 96 26
69 77 94
74 78 28
66 69 72
36 31 49
82 81 54
89 87 19
47 51 28
55 50 61
77 72 84
24 18 23
73 65 67
29 21 53
44 50 54
55 45 16
27 18 9
30 28 54
82 92 77
