2-dimensional/CL_07_25_03.txt
150 150 
0 30 77 84 
1 72 24 29 
2 4 30 26 
3 88 32 30 
4 54 74 70 
5 64 67 68 
6 90 30 21 
7 26 87 96 
8 94 69 77 
9 28 74 78 
10 72 66 69 
11 49 36 31 
12 54 82 81 
13 19 89 87 
14 28 47 51 
15 61 55 50 
16 84 77 72 
17 23 24 18 
18 67 73 65 
19 53 29 21 
20 54 44 50 
21 16 55 45 
22 9 27 18 
23 54 30 28 
24 77 82 92 
